
n_res = 6;
rcap = [18, 19, 20, 19, 690, 702];
rtype = [1, 1, 1, 1, 2, 2];
n_tasks = 50;
modes =  [{1, 2, 3}, {4, 5, 6}, {7, 8, 9}, {10, 11, 12}, {13, 14, 15}, {16, 17, 18}, {19, 20, 21}, {22, 23, 24}, {25, 26, 27}, {28, 29, 30}, {31, 32, 33}, {34, 35, 36}, {37, 38, 39}, {40, 41, 42}, {43, 44, 45}, {46, 47, 48}, {49, 50, 51}, {52, 53, 54}, {55, 56, 57}, {58, 59, 60}, {61, 62, 63}, {64, 65, 66}, {67, 68, 69}, {70, 71, 72}, {73, 74, 75}, {76, 77, 78}, {79, 80, 81}, {82, 83, 84}, {85, 86, 87}, {88, 89, 90}, {91, 92, 93}, {94, 95, 96}, {97, 98, 99}, {100, 101, 102}, {103, 104, 105}, {106, 107, 108}, {109, 110, 111}, {112, 113, 114}, {115, 116, 117}, {118, 119, 120}, {121, 122, 123}, {124, 125, 126}, {127, 128, 129}, {130, 131, 132}, {133, 134, 135}, {136, 137, 138}, {139, 140, 141}, {142, 143, 144}, {145, 146, 147}, {148, 149, 150}];
succ =  [{15, 14, 9, 7, 6, 5}, {14, 11, 9, 5}, {22, 14, 9, 5}, {12, 11, 9}, {17, 16, 12, 10}, {17, 13, 12, 11}, {17, 11, 10}, {14, 10}, {10}, {20, 19, 13}, {21, 20, 16}, {20, 19, 18}, {24, 21, 18}, {24, 23, 18}, {26, 24, 20}, {23, 19}, {24, 18}, {40, 32, 26, 25}, {40, 32, 24}, {25, 23}, {26, 23}, {25, 23}, {40, 36, 32, 29, 28, 27}, {28, 25}, {36, 33, 30, 29, 27}, {36, 31, 29, 28}, {39, 38, 37, 35, 31}, {39, 33, 30}, {50, 44, 43, 38, 34}, {50, 43, 38, 34}, {50, 43, 34}, {50, 44, 34}, {50, 49, 48, 47, 46, 44}, {49, 48, 46, 42, 41}, {50, 49, 44, 42, 41}, {49, 47, 43, 41}, {50, 49, 48, 46}, {48, 47, 46}, {48, 46, 45}, {50, 46, 45}, {45}, {47}, {45}, {45}, {}, {}, {}, {}, {}, {}];
n_opt = 150;
dur = [11, 12, 28, 14, 15, 21, 2, 5, 18, 7, 8, 9, 8, 13, 22, 3, 9, 24, 6, 9, 13, 14, 26, 28, 5, 6, 14, 7, 11, 27, 6, 12, 23, 7, 8, 22, 2, 27, 30, 1, 5, 10, 1, 3, 7, 5, 22, 24, 9, 11, 14, 5, 24, 26, 6, 24, 25, 2, 20, 24, 2, 10, 27, 12, 16, 21, 7, 16, 19, 7, 22, 26, 7, 10, 22, 3, 4, 27, 9, 17, 29, 10, 11, 14, 9, 11, 12, 6, 7, 15, 21, 23, 26, 14, 21, 23, 1, 13, 18, 3, 7, 27, 6, 8, 21, 14, 15, 17, 9, 11, 16, 16, 27, 28, 11, 12, 17, 3, 17, 20, 3, 9, 30, 12, 20, 21, 9, 19, 25, 10, 15, 24, 21, 25, 27, 5, 10, 17, 1, 19, 29, 1, 10, 30, 2, 3, 25, 9, 14, 25];
rreq = [|5, 4, 4, 5, 3, 2, 2, 2, 2, 4, 3, 3, 2, 1, 1, 3, 2, 2, 3, 3, 2, 3, 3, 1, 3, 3, 3, 4, 3, 1, 3, 2, 1, 4, 4, 4, 4, 4, 4, 4, 3, 3, 3, 2, 1, 2, 2, 1, 1, 1, 1, 4, 2, 2, 4, 4, 4, 5, 5, 5, 1, 1, 1, 3, 2, 2, 4, 4, 4, 4, 4, 3, 3, 2, 2, 1, 1, 1, 1, 1, 1, 4, 4, 4, 3, 2, 2, 4, 3, 3, 5, 5, 5, 3, 2, 2, 4, 3, 3, 5, 5, 5, 3, 2, 2, 1, 1, 1, 5, 5, 5, 5, 5, 5, 3, 3, 3, 2, 1, 1, 4, 4, 2, 2, 2, 2, 4, 3, 2, 4, 4, 3, 3, 2, 1, 1, 1, 1, 2, 2, 2, 4, 3, 3, 3, 2, 1, 5, 4, 2
 |2, 1, 1, 3, 3, 3, 3, 2, 1, 3, 3, 3, 5, 5, 5, 3, 2, 2, 4, 3, 3, 3, 2, 2, 3, 2, 2, 1, 1, 1, 3, 2, 2, 2, 1, 1, 3, 2, 2, 4, 3, 3, 5, 4, 2, 4, 3, 2, 5, 3, 3, 2, 2, 2, 5, 5, 5, 1, 1, 1, 4, 4, 4, 1, 1, 1, 2, 2, 2, 2, 1, 1, 1, 1, 1, 3, 2, 2, 4, 2, 1, 3, 2, 1, 3, 2, 2, 1, 1, 1, 5, 5, 5, 4, 3, 1, 3, 2, 2, 3, 3, 2, 4, 3, 3, 4, 3, 3, 2, 1, 1, 4, 4, 4, 3, 3, 3, 3, 2, 2, 4, 4, 4, 3, 3, 2, 1, 1, 1, 3, 3, 1, 4, 4, 3, 4, 3, 1, 3, 2, 2, 4, 4, 4, 4, 3, 2, 4, 3, 3
 |1, 1, 1, 4, 4, 4, 3, 2, 2, 4, 3, 2, 4, 4, 4, 5, 4, 4, 5, 3, 3, 2, 1, 1, 3, 3, 3, 3, 1, 1, 2, 2, 1, 4, 4, 4, 4, 3, 2, 4, 4, 4, 5, 4, 2, 3, 3, 3, 4, 3, 2, 3, 2, 1, 5, 3, 2, 2, 1, 1, 5, 4, 4, 5, 3, 3, 4, 4, 3, 2, 1, 1, 5, 2, 2, 5, 3, 3, 1, 1, 1, 5, 5, 5, 5, 4, 4, 3, 1, 1, 4, 3, 3, 1, 1, 1, 5, 2, 1, 4, 3, 3, 3, 2, 2, 4, 4, 4, 3, 1, 1, 4, 3, 3, 5, 3, 2, 3, 3, 2, 2, 2, 2, 2, 2, 1, 4, 3, 3, 5, 4, 4, 3, 2, 1, 5, 5, 5, 2, 2, 2, 5, 5, 5, 2, 1, 1, 2, 2, 2
 |4, 4, 4, 2, 2, 2, 2, 2, 1, 2, 1, 1, 1, 1, 1, 3, 3, 3, 5, 3, 3, 4, 2, 2, 3, 3, 3, 3, 3, 3, 5, 5, 5, 5, 4, 3, 2, 1, 1, 1, 1, 1, 4, 4, 3, 4, 2, 2, 5, 4, 3, 5, 4, 3, 4, 2, 1, 3, 3, 2, 3, 2, 2, 3, 2, 1, 4, 3, 1, 4, 3, 3, 2, 1, 1, 4, 2, 1, 4, 4, 2, 4, 3, 1, 3, 2, 2, 2, 2, 2, 3, 3, 3, 2, 2, 2, 2, 2, 2, 4, 4, 4, 4, 3, 2, 4, 2, 2, 4, 4, 4, 4, 3, 3, 5, 2, 1, 2, 1, 1, 3, 3, 3, 2, 2, 2, 3, 1, 1, 4, 2, 1, 3, 2, 2, 4, 3, 2, 3, 3, 3, 5, 3, 3, 3, 1, 1, 4, 3, 3
 |7, 6, 4, 28, 28, 26, 15, 11, 10, 22, 19, 14, 26, 25, 24, 24, 20, 15, 13, 8, 2, 21, 19, 14, 12, 11, 11, 23, 15, 9, 16, 16, 9, 15, 10, 8, 8, 6, 6, 25, 21, 20, 21, 17, 15, 6, 5, 5, 22, 13, 6, 16, 8, 1, 12, 10, 7, 26, 24, 23, 13, 12, 12, 9, 6, 4, 18, 12, 4, 21, 14, 7, 17, 13, 11, 11, 9, 8, 21, 15, 12, 5, 4, 2, 5, 5, 1, 21, 17, 14, 24, 19, 16, 19, 17, 14, 11, 10, 8, 4, 4, 3, 12, 12, 10, 9, 7, 4, 6, 5, 4, 26, 22, 16, 26, 26, 19, 26, 23, 23, 28, 10, 4, 10, 10, 4, 19, 17, 17, 12, 8, 5, 23, 17, 17, 15, 6, 3, 25, 25, 24, 10, 10, 9, 23, 19, 19, 26, 19, 5
 |20, 18, 9, 16, 12, 11, 25, 21, 19, 15, 15, 15, 24, 20, 16, 4, 3, 3, 21, 18, 12, 26, 13, 6, 7, 6, 4, 3, 3, 3, 12, 9, 2, 22, 15, 11, 30, 15, 6, 27, 25, 22, 13, 12, 4, 6, 4, 2, 18, 15, 12, 29, 18, 1, 11, 11, 11, 26, 25, 24, 12, 12, 11, 24, 23, 23, 22, 17, 11, 14, 14, 12, 23, 16, 13, 6, 5, 4, 4, 3, 3, 12, 12, 11, 20, 20, 15, 19, 13, 8, 25, 10, 6, 12, 9, 6, 26, 20, 16, 16, 13, 7, 23, 21, 15, 19, 14, 9, 8, 7, 5, 22, 20, 20, 9, 5, 1, 16, 7, 6, 23, 19, 8, 25, 18, 18, 17, 13, 8, 16, 14, 12, 19, 16, 15, 16, 10, 5, 23, 11, 3, 10, 8, 5, 28, 21, 16, 28, 27, 27|];